N = 8;
H = 5;
T = 2;

avail = array3d(1..N, 1..H, 1..T, [9, 10, 7, 4, 10, 0, 2, 1, 7, 4, 6, 6, 4, 0, 5, 10, 9, 0, 6, 3, 9, 0, 4, 10, 5, 3, 1, 8, 1, 8, 6, 2, 1, 2, 8, 8, 3, 0, 6, 7, 0, 4, 6, 1, 5, 6, 9, 7, 4, 3, 1, 0, 10, 4, 3, 5, 9, 7, 2, 4, 3, 2, 4, 2, 9, 9, 4, 3, 0, 2, 2, 8, 0, 5, 4, 4, 8, 7, 10, 9]);

r = array2d(1..H, 1..T, [2, 3, 4, 2, 1, 2, 2, 0, 2, 4]);
